Route #1: 33 48 19 3 35
Route #2: 8 12 37 32 31 27 41
Route #3: 6 7 28 26 43 11
Route #4: 4 14 42 13 29 39
Route #5: 18
Route #6: 5 36 40 16 2 38 34 10 17
Route #7: 23 45 47 30 24 22 46 25
Route #8: 15 50 49 9 1 20 44 21
Cost 1016
Time 0.061191
